p cnf 200 1110
-101 29 0
-101 -36 0
-101 -17 0
-101 -66 0
-101 10 0
-101 -43 0
-101 -98 0
-101 -18 0
-101 -93 0
-101 -72 0
101 -29 36 17 66 -10 43 98 18 93 72 0
-102 55 0
-102 48 0
-102 -70 0
-102 14 0
-102 20 0
-102 -35 0
-102 52 0
-102 -65 0
-102 86 0
-102 72 0
102 -55 -48 70 -14 -20 35 -52 65 -86 -72 0
-103 2 0
-103 -43 0
-103 5 0
-103 -66 0
-103 -35 0
-103 -78 0
-103 -56 0
-103 96 0
-103 25 0
-103 -32 0
103 -2 43 -5 66 35 78 56 -96 -25 32 0
-104 -52 0
-104 40 0
-104 -17 0
-104 -12 0
-104 -57 0
-104 -97 0
-104 29 0
-104 75 0
-104 35 0
-104 26 0
104 52 -40 17 12 57 97 -29 -75 -35 -26 0
-105 7 0
-105 20 0
-105 -41 0
-105 -60 0
-105 29 0
-105 42 0
-105 -69 0
-105 -87 0
-105 79 0
-105 -62 0
105 -7 -20 41 60 -29 -42 69 87 -79 62 0
-106 81 0
-106 69 0
-106 -82 0
-106 94 0
-106 -19 0
-106 29 0
-106 -68 0
-106 -3 0
-106 10 0
-106 73 0
106 -81 -69 82 -94 19 -29 68 3 -10 -73 0
-107 -84 0
-107 31 0
-107 -54 0
-107 56 0
-107 94 0
-107 15 0
-107 -28 0
-107 -37 0
-107 53 0
-107 97 0
107 84 -31 54 -56 -94 -15 28 37 -53 -97 0
-108 67 0
-108 25 0
-108 27 0
-108 -86 0
-108 -19 0
-108 68 0
-108 32 0
-108 -53 0
-108 -5 0
-108 -80 0
108 -67 -25 -27 86 19 -68 -32 53 5 80 0
-109 19 0
-109 -50 0
-109 -92 0
-109 -15 0
-109 35 0
-109 31 0
-109 -33 0
-109 81 0
-109 82 0
-109 -62 0
109 -19 50 92 15 -35 -31 33 -81 -82 62 0
-110 11 0
-110 -95 0
-110 52 0
-110 60 0
-110 -68 0
-110 -25 0
-110 -97 0
-110 -99 0
-110 81 0
-110 24 0
110 -11 95 -52 -60 68 25 97 99 -81 -24 0
101 102 103 104 105 106 107 108 109 110 0
-111 -36 0
-111 33 0
-111 -87 0
-111 -50 0
-111 76 0
-111 81 0
-111 -5 0
-111 51 0
-111 97 0
-111 20 0
111 36 -33 87 50 -76 -81 5 -51 -97 -20 0
-112 39 0
-112 34 0
-112 26 0
-112 -29 0
-112 62 0
-112 -21 0
-112 -48 0
-112 7 0
-112 -69 0
-112 31 0
112 -39 -34 -26 29 -62 21 48 -7 69 -31 0
-113 32 0
-113 -28 0
-113 -48 0
-113 -22 0
-113 -77 0
-113 33 0
-113 100 0
-113 -2 0
-113 -35 0
-113 -83 0
113 -32 28 48 22 77 -33 -100 2 35 83 0
-114 84 0
-114 -20 0
-114 10 0
-114 25 0
-114 29 0
-114 -52 0
-114 -19 0
-114 -91 0
-114 55 0
-114 11 0
114 -84 20 -10 -25 -29 52 19 91 -55 -11 0
-115 -6 0
-115 52 0
-115 61 0
-115 89 0
-115 42 0
-115 -12 0
-115 -72 0
-115 43 0
-115 -98 0
-115 -34 0
115 6 -52 -61 -89 -42 12 72 -43 98 34 0
-116 -77 0
-116 -33 0
-116 -81 0
-116 79 0
-116 17 0
-116 5 0
-116 83 0
-116 -72 0
-116 -68 0
-116 21 0
116 77 33 81 -79 -17 -5 -83 72 68 -21 0
-117 -13 0
-117 -32 0
-117 62 0
-117 97 0
-117 -73 0
-117 59 0
-117 -83 0
-117 98 0
-117 -55 0
-117 -91 0
117 13 32 -62 -97 73 -59 83 -98 55 91 0
-118 44 0
-118 36 0
-118 -48 0
-118 -10 0
-118 -27 0
-118 -56 0
-118 -54 0
-118 82 0
-118 6 0
-118 -66 0
118 -44 -36 48 10 27 56 54 -82 -6 66 0
-119 -37 0
-119 -95 0
-119 12 0
-119 39 0
-119 36 0
-119 100 0
-119 -82 0
-119 -71 0
-119 -45 0
-119 34 0
119 37 95 -12 -39 -36 -100 82 71 45 -34 0
-120 -66 0
-120 -37 0
-120 -64 0
-120 -2 0
-120 -32 0
-120 65 0
-120 -36 0
-120 -15 0
-120 -23 0
-120 -45 0
120 66 37 64 2 32 -65 36 15 23 45 0
111 112 113 114 115 116 117 118 119 120 0
-121 -6 0
-121 40 0
-121 -63 0
-121 -68 0
-121 95 0
-121 -45 0
-121 -52 0
-121 33 0
-121 43 0
-121 70 0
121 6 -40 63 68 -95 45 52 -33 -43 -70 0
-122 -28 0
-122 -41 0
-122 56 0
-122 50 0
-122 -40 0
-122 55 0
-122 -74 0
-122 -88 0
-122 -93 0
-122 90 0
122 28 41 -56 -50 40 -55 74 88 93 -90 0
-123 -51 0
-123 -8 0
-123 -58 0
-123 47 0
-123 35 0
-123 89 0
-123 63 0
-123 -10 0
-123 -21 0
-123 87 0
123 51 8 58 -47 -35 -89 -63 10 21 -87 0
-124 77 0
-124 69 0
-124 55 0
-124 67 0
-124 -100 0
-124 -78 0
-124 30 0
-124 -70 0
-124 -71 0
-124 61 0
124 -77 -69 -55 -67 100 78 -30 70 71 -61 0
-125 99 0
-125 89 0
-125 -26 0
-125 67 0
-125 -34 0
-125 43 0
-125 79 0
-125 -76 0
-125 74 0
-125 92 0
125 -99 -89 26 -67 34 -43 -79 76 -74 -92 0
-126 40 0
-126 -41 0
-126 94 0
-126 43 0
-126 -11 0
-126 62 0
-126 2 0
-126 9 0
-126 -73 0
-126 -13 0
126 -40 41 -94 -43 11 -62 -2 -9 73 13 0
-127 -35 0
-127 -60 0
-127 18 0
-127 93 0
-127 -58 0
-127 92 0
-127 -11 0
-127 -59 0
-127 -77 0
-127 37 0
127 35 60 -18 -93 58 -92 11 59 77 -37 0
-128 73 0
-128 96 0
-128 12 0
-128 18 0
-128 -72 0
-128 -4 0
-128 -77 0
-128 -26 0
-128 45 0
-128 -40 0
128 -73 -96 -12 -18 72 4 77 26 -45 40 0
-129 -3 0
-129 -7 0
-129 95 0
-129 93 0
-129 -99 0
-129 -97 0
-129 -30 0
-129 -26 0
-129 -37 0
-129 -91 0
129 3 7 -95 -93 99 97 30 26 37 91 0
-130 75 0
-130 73 0
-130 -95 0
-130 -54 0
-130 45 0
-130 -49 0
-130 38 0
-130 60 0
-130 89 0
-130 -33 0
130 -75 -73 95 54 -45 49 -38 -60 -89 33 0
121 122 123 124 125 126 127 128 129 130 0
-131 48 0
-131 -40 0
-131 -73 0
-131 36 0
-131 -14 0
-131 -29 0
-131 90 0
-131 68 0
-131 -83 0
-131 60 0
131 -48 40 73 -36 14 29 -90 -68 83 -60 0
-132 -80 0
-132 -12 0
-132 93 0
-132 -41 0
-132 56 0
-132 46 0
-132 -24 0
-132 -20 0
-132 43 0
-132 29 0
132 80 12 -93 41 -56 -46 24 20 -43 -29 0
-133 34 0
-133 -41 0
-133 38 0
-133 -19 0
-133 68 0
-133 -18 0
-133 44 0
-133 -63 0
-133 90 0
-133 -96 0
133 -34 41 -38 19 -68 18 -44 63 -90 96 0
-134 37 0
-134 -75 0
-134 -74 0
-134 -45 0
-134 -99 0
-134 -23 0
-134 -16 0
-134 -3 0
-134 7 0
-134 -28 0
134 -37 75 74 45 99 23 16 3 -7 28 0
-135 -86 0
-135 47 0
-135 -23 0
-135 10 0
-135 -58 0
-135 -59 0
-135 39 0
-135 -38 0
-135 -63 0
-135 -92 0
135 86 -47 23 -10 58 59 -39 38 63 92 0
-136 91 0
-136 84 0
-136 -55 0
-136 -80 0
-136 74 0
-136 -65 0
-136 16 0
-136 -64 0
-136 98 0
-136 41 0
136 -91 -84 55 80 -74 65 -16 64 -98 -41 0
-137 -65 0
-137 -18 0
-137 -93 0
-137 -14 0
-137 97 0
-137 72 0
-137 76 0
-137 98 0
-137 16 0
-137 -51 0
137 65 18 93 14 -97 -72 -76 -98 -16 51 0
-138 3 0
-138 -81 0
-138 75 0
-138 -85 0
-138 -71 0
-138 -64 0
-138 -100 0
-138 -98 0
-138 54 0
-138 -70 0
138 -3 81 -75 85 71 64 100 98 -54 70 0
-139 -3 0
-139 26 0
-139 42 0
-139 63 0
-139 -78 0
-139 -97 0
-139 -2 0
-139 23 0
-139 1 0
-139 -53 0
139 3 -26 -42 -63 78 97 2 -23 -1 53 0
-140 10 0
-140 95 0
-140 78 0
-140 -63 0
-140 87 0
-140 80 0
-140 -65 0
-140 -98 0
-140 -40 0
-140 81 0
140 -10 -95 -78 63 -87 -80 65 98 40 -81 0
131 132 133 134 135 136 137 138 139 140 0
-141 16 0
-141 21 0
-141 -55 0
-141 -5 0
-141 -86 0
-141 23 0
-141 36 0
-141 -58 0
-141 -42 0
-141 -82 0
141 -16 -21 55 5 86 -23 -36 58 42 82 0
-142 18 0
-142 69 0
-142 -45 0
-142 -55 0
-142 2 0
-142 -21 0
-142 97 0
-142 66 0
-142 -50 0
-142 36 0
142 -18 -69 45 55 -2 21 -97 -66 50 -36 0
-143 57 0
-143 28 0
-143 -87 0
-143 -80 0
-143 -25 0
-143 88 0
-143 81 0
-143 45 0
-143 63 0
-143 10 0
143 -57 -28 87 80 25 -88 -81 -45 -63 -10 0
-144 -17 0
-144 -73 0
-144 -3 0
-144 77 0
-144 70 0
-144 -53 0
-144 15 0
-144 -66 0
-144 57 0
-144 83 0
144 17 73 3 -77 -70 53 -15 66 -57 -83 0
-145 99 0
-145 13 0
-145 -45 0
-145 2 0
-145 10 0
-145 -43 0
-145 -22 0
-145 30 0
-145 -38 0
-145 -98 0
145 -99 -13 45 -2 -10 43 22 -30 38 98 0
-146 45 0
-146 34 0
-146 59 0
-146 14 0
-146 -82 0
-146 89 0
-146 32 0
-146 -36 0
-146 52 0
-146 80 0
146 -45 -34 -59 -14 82 -89 -32 36 -52 -80 0
-147 -36 0
-147 -33 0
-147 76 0
-147 -66 0
-147 -74 0
-147 -6 0
-147 -37 0
-147 -62 0
-147 94 0
-147 -47 0
147 36 33 -76 66 74 6 37 62 -94 47 0
-148 -21 0
-148 -23 0
-148 -41 0
-148 -30 0
-148 -70 0
-148 42 0
-148 3 0
-148 76 0
-148 14 0
-148 24 0
148 21 23 41 30 70 -42 -3 -76 -14 -24 0
-149 52 0
-149 -33 0
-149 -35 0
-149 5 0
-149 94 0
-149 42 0
-149 -63 0
-149 61 0
-149 -88 0
-149 90 0
149 -52 33 35 -5 -94 -42 63 -61 88 -90 0
-150 81 0
-150 -90 0
-150 -43 0
-150 69 0
-150 -29 0
-150 36 0
-150 -83 0
-150 70 0
-150 47 0
-150 71 0
150 -81 90 43 -69 29 -36 83 -70 -47 -71 0
141 142 143 144 145 146 147 148 149 150 0
-151 -46 0
-151 -35 0
-151 36 0
-151 62 0
-151 -6 0
-151 86 0
-151 -56 0
-151 76 0
-151 18 0
-151 55 0
151 46 35 -36 -62 6 -86 56 -76 -18 -55 0
-152 -58 0
-152 -69 0
-152 -30 0
-152 20 0
-152 25 0
-152 -21 0
-152 -73 0
-152 -5 0
-152 22 0
-152 -42 0
152 58 69 30 -20 -25 21 73 5 -22 42 0
-153 -2 0
-153 3 0
-153 56 0
-153 84 0
-153 57 0
-153 -71 0
-153 -9 0
-153 99 0
-153 -51 0
-153 -27 0
153 2 -3 -56 -84 -57 71 9 -99 51 27 0
-154 -20 0
-154 53 0
-154 -65 0
-154 25 0
-154 21 0
-154 -44 0
-154 17 0
-154 -26 0
-154 31 0
-154 40 0
154 20 -53 65 -25 -21 44 -17 26 -31 -40 0
-155 82 0
-155 -40 0
-155 48 0
-155 86 0
-155 27 0
-155 7 0
-155 -67 0
-155 53 0
-155 73 0
-155 -99 0
155 -82 40 -48 -86 -27 -7 67 -53 -73 99 0
-156 -60 0
-156 81 0
-156 28 0
-156 52 0
-156 -75 0
-156 -46 0
-156 -57 0
-156 92 0
-156 98 0
-156 97 0
156 60 -81 -28 -52 75 46 57 -92 -98 -97 0
-157 63 0
-157 -76 0
-157 18 0
-157 23 0
-157 61 0
-157 46 0
-157 -81 0
-157 55 0
-157 29 0
-157 -28 0
157 -63 76 -18 -23 -61 -46 81 -55 -29 28 0
-158 -10 0
-158 8 0
-158 -43 0
-158 19 0
-158 46 0
-158 -96 0
-158 74 0
-158 72 0
-158 40 0
-158 41 0
158 10 -8 43 -19 -46 96 -74 -72 -40 -41 0
-159 13 0
-159 -19 0
-159 -18 0
-159 -31 0
-159 71 0
-159 -6 0
-159 -46 0
-159 -8 0
-159 3 0
-159 -66 0
159 -13 19 18 31 -71 6 46 8 -3 66 0
-160 25 0
-160 -27 0
-160 -76 0
-160 34 0
-160 14 0
-160 41 0
-160 -54 0
-160 65 0
-160 8 0
-160 38 0
160 -25 27 76 -34 -14 -41 54 -65 -8 -38 0
151 152 153 154 155 156 157 158 159 160 0
-161 23 0
-161 -31 0
-161 74 0
-161 58 0
-161 -18 0
-161 -68 0
-161 9 0
-161 30 0
-161 -5 0
-161 -70 0
161 -23 31 -74 -58 18 68 -9 -30 5 70 0
-162 55 0
-162 66 0
-162 -13 0
-162 50 0
-162 -47 0
-162 -44 0
-162 90 0
-162 45 0
-162 26 0
-162 -94 0
162 -55 -66 13 -50 47 44 -90 -45 -26 94 0
-163 -50 0
-163 -26 0
-163 23 0
-163 -67 0
-163 -54 0
-163 -65 0
-163 -31 0
-163 46 0
-163 91 0
-163 5 0
163 50 26 -23 67 54 65 31 -46 -91 -5 0
-164 -22 0
-164 74 0
-164 -78 0
-164 -94 0
-164 -96 0
-164 52 0
-164 24 0
-164 -83 0
-164 -16 0
-164 -44 0
164 22 -74 78 94 96 -52 -24 83 16 44 0
-165 -18 0
-165 56 0
-165 -100 0
-165 4 0
-165 -41 0
-165 5 0
-165 30 0
-165 26 0
-165 19 0
-165 49 0
165 18 -56 100 -4 41 -5 -30 -26 -19 -49 0
-166 -47 0
-166 66 0
-166 -44 0
-166 23 0
-166 -64 0
-166 -53 0
-166 26 0
-166 -68 0
-166 -88 0
-166 86 0
166 47 -66 44 -23 64 53 -26 68 88 -86 0
-167 72 0
-167 -50 0
-167 23 0
-167 45 0
-167 14 0
-167 -95 0
-167 81 0
-167 30 0
-167 -83 0
-167 39 0
167 -72 50 -23 -45 -14 95 -81 -30 83 -39 0
-168 83 0
-168 -26 0
-168 96 0
-168 -13 0
-168 -72 0
-168 34 0
-168 44 0
-168 -78 0
-168 28 0
-168 21 0
168 -83 26 -96 13 72 -34 -44 78 -28 -21 0
-169 10 0
-169 47 0
-169 -12 0
-169 78 0
-169 -67 0
-169 -19 0
-169 100 0
-169 27 0
-169 -54 0
-169 46 0
169 -10 -47 12 -78 67 19 -100 -27 54 -46 0
-170 83 0
-170 -55 0
-170 95 0
-170 6 0
-170 99 0
-170 40 0
-170 87 0
-170 10 0
-170 53 0
-170 -24 0
170 -83 55 -95 -6 -99 -40 -87 -10 -53 24 0
161 162 163 164 165 166 167 168 169 170 0
-171 -93 0
-171 62 0
-171 97 0
-171 39 0
-171 44 0
-171 61 0
-171 -86 0
-171 -63 0
-171 2 0
-171 -18 0
171 93 -62 -97 -39 -44 -61 86 63 -2 18 0
-172 -97 0
-172 -51 0
-172 42 0
-172 -89 0
-172 -67 0
-172 -95 0
-172 -43 0
-172 -82 0
-172 3 0
-172 32 0
172 97 51 -42 89 67 95 43 82 -3 -32 0
-173 -55 0
-173 -48 0
-173 78 0
-173 38 0
-173 83 0
-173 -4 0
-173 92 0
-173 30 0
-173 -41 0
-173 -7 0
173 55 48 -78 -38 -83 4 -92 -30 41 7 0
-174 49 0
-174 -53 0
-174 -72 0
-174 -15 0
-174 60 0
-174 -31 0
-174 -39 0
-174 -2 0
-174 -43 0
-174 -99 0
174 -49 53 72 15 -60 31 39 2 43 99 0
-175 65 0
-175 20 0
-175 88 0
-175 97 0
-175 58 0
-175 28 0
-175 -81 0
-175 -75 0
-175 16 0
-175 48 0
175 -65 -20 -88 -97 -58 -28 81 75 -16 -48 0
-176 -1 0
-176 2 0
-176 75 0
-176 72 0
-176 73 0
-176 7 0
-176 -81 0
-176 39 0
-176 15 0
-176 27 0
176 1 -2 -75 -72 -73 -7 81 -39 -15 -27 0
-177 -10 0
-177 -49 0
-177 61 0
-177 25 0
-177 84 0
-177 -9 0
-177 62 0
-177 -59 0
-177 -79 0
-177 -65 0
177 10 49 -61 -25 -84 9 -62 59 79 65 0
-178 -79 0
-178 -20 0
-178 10 0
-178 -72 0
-178 -39 0
-178 43 0
-178 -40 0
-178 -54 0
-178 -59 0
-178 7 0
178 79 20 -10 72 39 -43 40 54 59 -7 0
-179 -67 0
-179 35 0
-179 95 0
-179 -92 0
-179 -56 0
-179 10 0
-179 -86 0
-179 16 0
-179 -72 0
-179 32 0
179 67 -35 -95 92 56 -10 86 -16 72 -32 0
-180 21 0
-180 -23 0
-180 -84 0
-180 -90 0
-180 97 0
-180 -1 0
-180 -65 0
-180 38 0
-180 95 0
-180 -11 0
180 -21 23 84 90 -97 1 65 -38 -95 11 0
171 172 173 174 175 176 177 178 179 180 0
-181 -80 0
-181 -65 0
-181 -100 0
-181 -36 0
-181 20 0
-181 -84 0
-181 -5 0
-181 96 0
-181 11 0
-181 -73 0
181 80 65 100 36 -20 84 5 -96 -11 73 0
-182 -39 0
-182 96 0
-182 5 0
-182 -53 0
-182 59 0
-182 19 0
-182 25 0
-182 -2 0
-182 -81 0
-182 -100 0
182 39 -96 -5 53 -59 -19 -25 2 81 100 0
-183 -31 0
-183 89 0
-183 45 0
-183 10 0
-183 48 0
-183 -76 0
-183 -34 0
-183 7 0
-183 37 0
-183 -53 0
183 31 -89 -45 -10 -48 76 34 -7 -37 53 0
-184 -86 0
-184 74 0
-184 -87 0
-184 77 0
-184 -83 0
-184 76 0
-184 4 0
-184 -97 0
-184 79 0
-184 -49 0
184 86 -74 87 -77 83 -76 -4 97 -79 49 0
-185 24 0
-185 20 0
-185 9 0
-185 43 0
-185 32 0
-185 -7 0
-185 14 0
-185 -34 0
-185 83 0
-185 -58 0
185 -24 -20 -9 -43 -32 7 -14 34 -83 58 0
-186 -84 0
-186 -46 0
-186 59 0
-186 13 0
-186 -25 0
-186 44 0
-186 -92 0
-186 48 0
-186 16 0
-186 85 0
186 84 46 -59 -13 25 -44 92 -48 -16 -85 0
-187 -69 0
-187 70 0
-187 78 0
-187 -80 0
-187 -32 0
-187 -98 0
-187 38 0
-187 64 0
-187 -81 0
-187 -53 0
187 69 -70 -78 80 32 98 -38 -64 81 53 0
-188 85 0
-188 7 0
-188 -99 0
-188 -49 0
-188 66 0
-188 47 0
-188 33 0
-188 74 0
-188 -75 0
-188 -73 0
188 -85 -7 99 49 -66 -47 -33 -74 75 73 0
-189 90 0
-189 -57 0
-189 26 0
-189 -52 0
-189 97 0
-189 11 0
-189 60 0
-189 -98 0
-189 -61 0
-189 54 0
189 -90 57 -26 52 -97 -11 -60 98 61 -54 0
-190 -49 0
-190 -23 0
-190 93 0
-190 60 0
-190 37 0
-190 87 0
-190 -73 0
-190 34 0
-190 96 0
-190 -76 0
190 49 23 -93 -60 -37 -87 73 -34 -96 76 0
181 182 183 184 185 186 187 188 189 190 0
-191 12 0
-191 57 0
-191 18 0
-191 80 0
-191 -48 0
-191 93 0
-191 -6 0
-191 -65 0
-191 36 0
-191 -23 0
191 -12 -57 -18 -80 48 -93 6 65 -36 23 0
-192 3 0
-192 -91 0
-192 -44 0
-192 14 0
-192 -19 0
-192 21 0
-192 86 0
-192 9 0
-192 -17 0
-192 76 0
192 -3 91 44 -14 19 -21 -86 -9 17 -76 0
-193 62 0
-193 47 0
-193 -73 0
-193 -14 0
-193 86 0
-193 46 0
-193 100 0
-193 -90 0
-193 -18 0
-193 -95 0
193 -62 -47 73 14 -86 -46 -100 90 18 95 0
-194 -29 0
-194 -65 0
-194 -21 0
-194 51 0
-194 -49 0
-194 -100 0
-194 57 0
-194 1 0
-194 75 0
-194 39 0
194 29 65 21 -51 49 100 -57 -1 -75 -39 0
-195 -67 0
-195 -61 0
-195 -80 0
-195 35 0
-195 -88 0
-195 49 0
-195 16 0
-195 59 0
-195 -73 0
-195 51 0
195 67 61 80 -35 88 -49 -16 -59 73 -51 0
-196 99 0
-196 -62 0
-196 -91 0
-196 21 0
-196 -92 0
-196 -8 0
-196 -35 0
-196 -52 0
-196 -65 0
-196 -56 0
196 -99 62 91 -21 92 8 35 52 65 56 0
-197 91 0
-197 41 0
-197 -56 0
-197 -24 0
-197 6 0
-197 11 0
-197 50 0
-197 72 0
-197 64 0
-197 -98 0
197 -91 -41 56 24 -6 -11 -50 -72 -64 98 0
-198 8 0
-198 64 0
-198 -74 0
-198 -28 0
-198 -93 0
-198 -15 0
-198 -14 0
-198 51 0
-198 -45 0
-198 -58 0
198 -8 -64 74 28 93 15 14 -51 45 58 0
-199 -64 0
-199 4 0
-199 12 0
-199 17 0
-199 -54 0
-199 -82 0
-199 -35 0
-199 57 0
-199 -85 0
-199 -56 0
199 64 -4 -12 -17 54 82 35 -57 85 56 0
-200 -1 0
-200 34 0
-200 9 0
-200 -26 0
-200 14 0
-200 -91 0
-200 -16 0
-200 25 0
-200 -11 0
-200 60 0
200 1 -34 -9 26 -14 91 16 -25 11 -60 0
191 192 193 194 195 196 197 198 199 200 0
